/*
 * Server, implementing the Raft consensus algorith
 * 
 * The Raft Consensus Algorithm
 * https://raft.github.io/
 * 
 * Author: Eric Dortmans (e.dortmans@fontys.nl)
 */

import Types.dzn;
import ServerInterface.dzn;
import ConsensusModule.dzn;
import Timer.dzn;
import Rules.dzn;
import Config.dzn;
import Rpc.dzn;

component Server
{
  provides IServer ctrl;

  system
  {
    ConsensusModule consensus;
    Timer electionTimer;
  	Timer heartbeatTimer;
    Rules rules;
    Config config;
    RpcClient rpcclient;
    RpcServer rpcserver;
    
    ctrl <=> consensus.ctrl;
    consensus.electionTimer <=> electionTimer.ctrl;
    consensus.heartbeatTimer <=> heartbeatTimer.ctrl;
    consensus.rules <=> rules.ctrl;
    consensus.config <=> config.ctrl;
    consensus.rpcclient <=> rpcclient.ctrl;
    consensus.rpcserver <=> rpcserver.ctrl;
  }
}
 